NAME: random-5-29875
TYPE: TSP
COMMENT: size=5 seed=29875
DIMENSION: 12
EDGE_WEIGHT_TYPE: EUC_2D
NODE_COORD_SECTION
+0 125 812
-0 125 812
+1 98 973
-1 965 443
+2 54 194
-2 321 876
+3 725 46
-3 366 997
+4 775 712
-4 262 88
+5 741 376
-5 410 363
PRECEDENCE_SECTION
+0 -0
+1 -1
+2 -2
+3 -3
+4 -4
+5 -5
EOF
